(set-info :smt-lib-version 2.6)
(set-logic QF_NIA)
(set-info :source |
Generated by: Cristina Borralleras, Daniel Larraz, Albert Oliveras, Enric Rodriguez-Carbonell, Albert Rubio
Generated on: 2017-04-27
Generator: VeryMax
Application: Termination proving
Target solver: barcelogic
|)
(set-info :license "https://creativecommons.org/licenses/by/4.0/")
(set-info :category "industrial")
(set-info :status sat)
(declare-fun Nl10arg11 () Int)
(declare-fun Nl10arg21 () Int)
(declare-fun Nl10arg31 () Int)
(declare-fun Nl10arg41 () Int)
(declare-fun Nl10arg12 () Int)
(declare-fun Nl10arg22 () Int)
(declare-fun Nl10arg32 () Int)
(declare-fun Nl10arg42 () Int)
(declare-fun Nl10arg13 () Int)
(declare-fun Nl10arg23 () Int)
(declare-fun Nl10arg33 () Int)
(declare-fun Nl10arg43 () Int)
(declare-fun lam0n0 () Int)
(declare-fun lam0n1 () Int)
(declare-fun lam0n2 () Int)
(declare-fun lam0n3 () Int)
(declare-fun lam0n4 () Int)
(declare-fun lam0n5 () Int)
(declare-fun lam0n6 () Int)
(declare-fun lam0n7 () Int)
(declare-fun lam0n8 () Int)
(declare-fun lam0n9 () Int)
(declare-fun UndefCntr0_CT () Int)
(declare-fun Nl10CT1 () Int)
(declare-fun Nl10CT2 () Int)
(declare-fun Nl10CT3 () Int)
(declare-fun UndefCntr0_arg1 () Int)
(declare-fun UndefCntr0_arg2 () Int)
(declare-fun UndefCntr0_arg3 () Int)
(declare-fun UndefCntr0_arg4 () Int)
(declare-fun UndefCntr0_undef89 () Int)
(declare-fun UndefCntr0_undef90 () Int)
(declare-fun UndefCntr0_undef91 () Int)
(declare-fun UndefCntr0_undef92 () Int)
(declare-fun lam1n0 () Int)
(declare-fun lam1n1 () Int)
(declare-fun lam1n2 () Int)
(declare-fun lam1n3 () Int)
(declare-fun lam1n4 () Int)
(declare-fun lam1n5 () Int)
(declare-fun lam1n6 () Int)
(declare-fun lam1n7 () Int)
(declare-fun lam1n8 () Int)
(declare-fun lam1n9 () Int)
(declare-fun lam2n0 () Int)
(declare-fun lam2n1 () Int)
(declare-fun lam2n2 () Int)
(declare-fun lam2n3 () Int)
(declare-fun lam2n4 () Int)
(declare-fun lam2n5 () Int)
(declare-fun lam2n6 () Int)
(declare-fun lam2n7 () Int)
(declare-fun lam2n8 () Int)
(declare-fun lam2n9 () Int)
(declare-fun lam3n0 () Int)
(declare-fun lam3n1 () Int)
(declare-fun lam3n2 () Int)
(declare-fun lam3n3 () Int)
(declare-fun lam3n4 () Int)
(declare-fun lam3n5 () Int)
(declare-fun lam3n6 () Int)
(declare-fun lam3n7 () Int)
(declare-fun lam3n8 () Int)
(declare-fun lam3n9 () Int)
(declare-fun lam4n0 () Int)
(declare-fun lam4n1 () Int)
(declare-fun lam4n2 () Int)
(declare-fun lam4n3 () Int)
(declare-fun lam4n4 () Int)
(declare-fun lam4n5 () Int)
(declare-fun lam4n6 () Int)
(declare-fun lam4n7 () Int)
(declare-fun lam4n8 () Int)
(declare-fun lam4n9 () Int)
(declare-fun lam4n10 () Int)
(declare-fun lam4n11 () Int)
(declare-fun lam4n12 () Int)
(declare-fun lam4n13 () Int)
(declare-fun lam4n14 () Int)
(declare-fun lam4n15 () Int)
(declare-fun lam5n0 () Int)
(declare-fun lam5n1 () Int)
(declare-fun lam5n2 () Int)
(declare-fun lam5n3 () Int)
(declare-fun lam5n4 () Int)
(declare-fun lam5n5 () Int)
(declare-fun lam5n6 () Int)
(declare-fun lam5n7 () Int)
(declare-fun lam5n8 () Int)
(declare-fun lam5n9 () Int)
(declare-fun lam5n10 () Int)
(declare-fun lam5n11 () Int)
(declare-fun lam5n12 () Int)
(declare-fun lam5n13 () Int)
(declare-fun lam5n14 () Int)
(declare-fun lam5n15 () Int)
(declare-fun lam6n0 () Int)
(declare-fun lam6n1 () Int)
(declare-fun lam6n2 () Int)
(declare-fun lam6n3 () Int)
(declare-fun lam6n4 () Int)
(declare-fun lam6n5 () Int)
(declare-fun lam6n6 () Int)
(declare-fun lam6n7 () Int)
(declare-fun lam6n8 () Int)
(declare-fun lam6n9 () Int)
(declare-fun lam6n10 () Int)
(declare-fun lam6n11 () Int)
(declare-fun lam6n12 () Int)
(declare-fun lam6n13 () Int)
(declare-fun lam6n14 () Int)
(declare-fun lam6n15 () Int)
(declare-fun lam7n0 () Int)
(declare-fun lam7n1 () Int)
(declare-fun lam7n2 () Int)
(declare-fun lam7n3 () Int)
(declare-fun lam7n4 () Int)
(declare-fun lam7n5 () Int)
(declare-fun lam7n6 () Int)
(declare-fun lam7n7 () Int)
(declare-fun lam7n8 () Int)
(declare-fun lam7n9 () Int)
(declare-fun lam7n10 () Int)
(declare-fun lam8n0 () Int)
(declare-fun lam8n1 () Int)
(declare-fun lam8n2 () Int)
(declare-fun lam8n3 () Int)
(declare-fun lam8n4 () Int)
(declare-fun lam8n5 () Int)
(declare-fun lam8n6 () Int)
(declare-fun lam8n7 () Int)
(declare-fun lam8n8 () Int)
(declare-fun lam8n9 () Int)
(declare-fun lam8n10 () Int)
(declare-fun lam9n0 () Int)
(declare-fun lam9n1 () Int)
(declare-fun lam9n2 () Int)
(declare-fun lam9n3 () Int)
(declare-fun lam9n4 () Int)
(declare-fun lam9n5 () Int)
(declare-fun lam9n6 () Int)
(declare-fun lam9n7 () Int)
(declare-fun lam9n8 () Int)
(declare-fun lam9n9 () Int)
(declare-fun lam9n10 () Int)
(declare-fun lam10n0 () Int)
(declare-fun lam10n1 () Int)
(declare-fun lam10n2 () Int)
(declare-fun lam10n3 () Int)
(declare-fun lam10n4 () Int)
(declare-fun lam10n5 () Int)
(declare-fun lam10n6 () Int)
(declare-fun lam10n7 () Int)
(declare-fun lam10n8 () Int)
(declare-fun lam10n9 () Int)
(declare-fun lam10n10 () Int)
(declare-fun lam10n11 () Int)
(declare-fun lam10n12 () Int)
(declare-fun lam11n0 () Int)
(declare-fun lam11n1 () Int)
(declare-fun lam11n2 () Int)
(declare-fun lam11n3 () Int)
(declare-fun lam11n4 () Int)
(declare-fun lam11n5 () Int)
(declare-fun lam11n6 () Int)
(declare-fun lam11n7 () Int)
(declare-fun lam11n8 () Int)
(declare-fun lam11n9 () Int)
(declare-fun lam11n10 () Int)
(declare-fun lam11n11 () Int)
(declare-fun lam11n12 () Int)
(declare-fun lam12n0 () Int)
(declare-fun lam12n1 () Int)
(declare-fun lam12n2 () Int)
(declare-fun lam12n3 () Int)
(declare-fun lam12n4 () Int)
(declare-fun lam12n5 () Int)
(declare-fun lam12n6 () Int)
(declare-fun lam12n7 () Int)
(declare-fun lam12n8 () Int)
(declare-fun lam12n9 () Int)
(declare-fun lam12n10 () Int)
(declare-fun lam12n11 () Int)
(declare-fun lam12n12 () Int)
(declare-fun lam13n0 () Int)
(declare-fun lam13n1 () Int)
(declare-fun lam13n2 () Int)
(declare-fun lam13n3 () Int)
(declare-fun lam13n4 () Int)
(declare-fun lam13n5 () Int)
(declare-fun lam13n6 () Int)
(declare-fun lam13n7 () Int)
(declare-fun lam13n8 () Int)
(declare-fun lam13n9 () Int)
(declare-fun lam14n0 () Int)
(declare-fun lam14n1 () Int)
(declare-fun lam14n2 () Int)
(declare-fun lam14n3 () Int)
(declare-fun lam14n4 () Int)
(declare-fun lam14n5 () Int)
(declare-fun lam14n6 () Int)
(declare-fun lam14n7 () Int)
(declare-fun lam14n8 () Int)
(declare-fun lam14n9 () Int)
(declare-fun lam15n0 () Int)
(declare-fun lam15n1 () Int)
(declare-fun lam15n2 () Int)
(declare-fun lam15n3 () Int)
(declare-fun lam15n4 () Int)
(declare-fun lam15n5 () Int)
(declare-fun lam15n6 () Int)
(declare-fun lam15n7 () Int)
(declare-fun lam15n8 () Int)
(declare-fun lam15n9 () Int)
(declare-fun undef5 () Int)
(declare-fun undef105 () Int)
(declare-fun undef17 () Int)
(declare-fun undef18 () Int)
(declare-fun undef77 () Int)
(declare-fun undef76 () Int)
(declare-fun undef78 () Int)
(declare-fun undef6 () Int)
(declare-fun undef19 () Int)
(declare-fun undef79 () Int)
(declare-fun undef71 () Int)
(declare-fun undef72 () Int)
(declare-fun undef73 () Int)
(declare-fun undef75 () Int)
(declare-fun undef74 () Int)
(declare-fun undef9 () Int)
(declare-fun undef10 () Int)
(declare-fun undef80 () Int)
(declare-fun undef82 () Int)
(declare-fun undef81 () Int)
(declare-fun undef84 () Int)
(declare-fun undef12 () Int)
(declare-fun undef83 () Int)
(declare-fun undef85 () Int)
(declare-fun undef87 () Int)
(declare-fun undef86 () Int)
(declare-fun undef88 () Int)
(declare-fun FV_arg1_1 () Int)
(declare-fun FV_arg2_1 () Int)
(declare-fun FV_arg3_1 () Int)
(declare-fun FV_arg4_1 () Int)
(declare-fun FV_undef89_0 () Int)
(declare-fun FV_undef90_0 () Int)
(declare-fun FV_undef91_0 () Int)
(declare-fun FV_arg1_0 () Int)
(declare-fun FV_arg2_0 () Int)
(declare-fun FV_arg3_0 () Int)
(declare-fun FV_arg4_0 () Int)
(declare-fun FV_undef92_0 () Int)
(declare-fun lam16n0 () Int)
(declare-fun lam16n1 () Int)
(declare-fun lam16n2 () Int)
(declare-fun lam16n3 () Int)
(declare-fun lam16n4 () Int)
(declare-fun lam16n5 () Int)
(declare-fun FV_arg1_2 () Int)
(declare-fun FV_arg2_2 () Int)
(declare-fun FV_arg3_2 () Int)
(declare-fun FV_arg4_2 () Int)
(declare-fun FV_undef91_2 () Int)
(declare-fun FV_undef89_2 () Int)
(declare-fun FV_undef90_2 () Int)
(assert ( and ( <= ( - 1 ) Nl10arg11 ) ( <= Nl10arg11 1 ) ( <= ( - 1 ) Nl10arg21 ) ( <= Nl10arg21 1 ) ( <= ( - 1 ) Nl10arg31 ) ( <= Nl10arg31 1 ) ( <= ( - 1 ) Nl10arg41 ) ( <= Nl10arg41 1 ) ( <= ( - 1 ) Nl10arg12 ) ( <= Nl10arg12 1 ) ( <= ( - 1 ) Nl10arg22 ) ( <= Nl10arg22 1 ) ( <= ( - 1 ) Nl10arg32 ) ( <= Nl10arg32 1 ) ( <= ( - 1 ) Nl10arg42 ) ( <= Nl10arg42 1 ) ( <= ( - 1 ) Nl10arg13 ) ( <= Nl10arg13 1 ) ( <= ( - 1 ) Nl10arg23 ) ( <= Nl10arg23 1 ) ( <= ( - 1 ) Nl10arg33 ) ( <= Nl10arg33 1 ) ( <= ( - 1 ) Nl10arg43 ) ( <= Nl10arg43 1 ) ))
(assert ( or ( and ( >= lam0n0 0 ) ( >= lam0n1 0 ) ( >= lam0n2 0 ) ( >= lam0n3 0 ) ( >= lam0n4 0 ) ( >= lam0n5 0 ) ( >= lam0n6 0 ) ( >= lam0n7 0 ) ( >= lam0n8 0 ) ( >= lam0n9 0 ) ( > ( + ( * 1 lam0n1 ) ( * 1 lam0n2 ) ( * 1 lam0n3 ) ( * 1 lam0n4 ) ( * 1 lam0n5 ) ( * UndefCntr0_CT lam0n6 ) ( * Nl10CT1 lam0n7 ) ( * Nl10CT2 lam0n8 ) ( * Nl10CT3 lam0n9 ) ( - 1 ) ) 0 ) ( = ( + ( * ( - 1 ) lam0n1 ) ( * UndefCntr0_arg1 lam0n6 ) ( * Nl10arg11 lam0n7 ) ( * Nl10arg12 lam0n8 ) ( * Nl10arg13 lam0n9 ) ) 0 ) ( = ( + ( * ( - 1 ) lam0n2 ) ( * UndefCntr0_arg2 lam0n6 ) ( * Nl10arg21 lam0n7 ) ( * Nl10arg22 lam0n8 ) ( * Nl10arg23 lam0n9 ) ) 0 ) ( = ( + ( * ( - 1 ) lam0n3 ) ( * UndefCntr0_arg3 lam0n6 ) ( * Nl10arg31 lam0n7 ) ( * Nl10arg32 lam0n8 ) ( * Nl10arg33 lam0n9 ) ) 0 ) ( = ( + ( * UndefCntr0_arg4 lam0n6 ) ( * Nl10arg41 lam0n7 ) ( * Nl10arg42 lam0n8 ) ( * Nl10arg43 lam0n9 ) ) 0 ) ( = ( + ( * ( - 1 ) lam0n4 ) ( * UndefCntr0_undef89 lam0n6 ) ) 0 ) ( = ( + ( * ( - 1 ) lam0n5 ) ( * UndefCntr0_undef90 lam0n6 ) ) 0 ) ( = ( + ( * ( - 1 ) lam0n0 ) ( * UndefCntr0_undef91 lam0n6 ) ) 0 ) ( = ( * UndefCntr0_undef92 lam0n6 ) 0 ) ) ( and ( >= lam1n0 0 ) ( >= lam1n1 0 ) ( >= lam1n2 0 ) ( >= lam1n3 0 ) ( >= lam1n4 0 ) ( >= lam1n5 0 ) ( >= lam1n6 0 ) ( >= lam1n7 0 ) ( >= lam1n8 0 ) ( >= lam1n9 0 ) ( > ( + ( * 1 lam1n1 ) ( * 1 lam1n2 ) ( * 1 lam1n3 ) ( * 1 lam1n4 ) ( * 1 lam1n5 ) ( * UndefCntr0_CT lam1n6 ) ( * Nl10CT1 lam1n7 ) ( * Nl10CT2 lam1n8 ) ( * Nl10CT3 lam1n9 ) ( - 1 ( + ( + ( + ( + Nl10CT1 ( * Nl10arg11 0 ) ) ( * Nl10arg21 0 ) ) ( * Nl10arg31 0 ) ) ( * Nl10arg41 0 ) ) ) ) 0 ) ( = ( + ( * ( - 1 ) lam1n1 ) ( * UndefCntr0_arg1 lam1n6 ) ( * Nl10arg11 lam1n7 ) ( * Nl10arg12 lam1n8 ) ( * Nl10arg13 lam1n9 ) ) 0 ) ( = ( + ( * ( - 1 ) lam1n2 ) ( * UndefCntr0_arg2 lam1n6 ) ( * Nl10arg21 lam1n7 ) ( * Nl10arg22 lam1n8 ) ( * Nl10arg23 lam1n9 ) ) 0 ) ( = ( + ( * ( - 1 ) lam1n3 ) ( * UndefCntr0_arg3 lam1n6 ) ( * Nl10arg31 lam1n7 ) ( * Nl10arg32 lam1n8 ) ( * Nl10arg33 lam1n9 ) ) 0 ) ( = ( + ( * UndefCntr0_arg4 lam1n6 ) ( * Nl10arg41 lam1n7 ) ( * Nl10arg42 lam1n8 ) ( * Nl10arg43 lam1n9 ) ) 0 ) ( = ( + ( * ( - 1 ) lam1n4 ) ( * UndefCntr0_undef89 lam1n6 ) ( - ( + 0 ( * Nl10arg11 1 ) ) ) ) 0 ) ( = ( + ( * ( - 1 ) lam1n5 ) ( * UndefCntr0_undef90 lam1n6 ) ( - ( + 0 ( * Nl10arg21 1 ) ) ) ) 0 ) ( = ( + ( * ( - 1 ) lam1n0 ) ( * UndefCntr0_undef91 lam1n6 ) ( - ( + 0 ( * Nl10arg31 1 ) ) ) ) 0 ) ( = ( + ( * UndefCntr0_undef92 lam1n6 ) ( - ( + 0 ( * Nl10arg41 1 ) ) ) ) 0 ) ) ))
(assert ( or ( and ( >= lam0n0 0 ) ( >= lam0n1 0 ) ( >= lam0n2 0 ) ( >= lam0n3 0 ) ( >= lam0n4 0 ) ( >= lam0n5 0 ) ( >= lam0n6 0 ) ( >= lam0n7 0 ) ( >= lam0n8 0 ) ( >= lam0n9 0 ) ( > ( + ( * 1 lam0n1 ) ( * 1 lam0n2 ) ( * 1 lam0n3 ) ( * 1 lam0n4 ) ( * 1 lam0n5 ) ( * UndefCntr0_CT lam0n6 ) ( * Nl10CT1 lam0n7 ) ( * Nl10CT2 lam0n8 ) ( * Nl10CT3 lam0n9 ) ( - 1 ) ) 0 ) ( = ( + ( * ( - 1 ) lam0n1 ) ( * UndefCntr0_arg1 lam0n6 ) ( * Nl10arg11 lam0n7 ) ( * Nl10arg12 lam0n8 ) ( * Nl10arg13 lam0n9 ) ) 0 ) ( = ( + ( * ( - 1 ) lam0n2 ) ( * UndefCntr0_arg2 lam0n6 ) ( * Nl10arg21 lam0n7 ) ( * Nl10arg22 lam0n8 ) ( * Nl10arg23 lam0n9 ) ) 0 ) ( = ( + ( * ( - 1 ) lam0n3 ) ( * UndefCntr0_arg3 lam0n6 ) ( * Nl10arg31 lam0n7 ) ( * Nl10arg32 lam0n8 ) ( * Nl10arg33 lam0n9 ) ) 0 ) ( = ( + ( * UndefCntr0_arg4 lam0n6 ) ( * Nl10arg41 lam0n7 ) ( * Nl10arg42 lam0n8 ) ( * Nl10arg43 lam0n9 ) ) 0 ) ( = ( + ( * ( - 1 ) lam0n4 ) ( * UndefCntr0_undef89 lam0n6 ) ) 0 ) ( = ( + ( * ( - 1 ) lam0n5 ) ( * UndefCntr0_undef90 lam0n6 ) ) 0 ) ( = ( + ( * ( - 1 ) lam0n0 ) ( * UndefCntr0_undef91 lam0n6 ) ) 0 ) ( = ( * UndefCntr0_undef92 lam0n6 ) 0 ) ) ( and ( >= lam2n0 0 ) ( >= lam2n1 0 ) ( >= lam2n2 0 ) ( >= lam2n3 0 ) ( >= lam2n4 0 ) ( >= lam2n5 0 ) ( >= lam2n6 0 ) ( >= lam2n7 0 ) ( >= lam2n8 0 ) ( >= lam2n9 0 ) ( > ( + ( * 1 lam2n1 ) ( * 1 lam2n2 ) ( * 1 lam2n3 ) ( * 1 lam2n4 ) ( * 1 lam2n5 ) ( * UndefCntr0_CT lam2n6 ) ( * Nl10CT1 lam2n7 ) ( * Nl10CT2 lam2n8 ) ( * Nl10CT3 lam2n9 ) ( - 1 ( + ( + ( + ( + Nl10CT2 ( * Nl10arg12 0 ) ) ( * Nl10arg22 0 ) ) ( * Nl10arg32 0 ) ) ( * Nl10arg42 0 ) ) ) ) 0 ) ( = ( + ( * ( - 1 ) lam2n1 ) ( * UndefCntr0_arg1 lam2n6 ) ( * Nl10arg11 lam2n7 ) ( * Nl10arg12 lam2n8 ) ( * Nl10arg13 lam2n9 ) ) 0 ) ( = ( + ( * ( - 1 ) lam2n2 ) ( * UndefCntr0_arg2 lam2n6 ) ( * Nl10arg21 lam2n7 ) ( * Nl10arg22 lam2n8 ) ( * Nl10arg23 lam2n9 ) ) 0 ) ( = ( + ( * ( - 1 ) lam2n3 ) ( * UndefCntr0_arg3 lam2n6 ) ( * Nl10arg31 lam2n7 ) ( * Nl10arg32 lam2n8 ) ( * Nl10arg33 lam2n9 ) ) 0 ) ( = ( + ( * UndefCntr0_arg4 lam2n6 ) ( * Nl10arg41 lam2n7 ) ( * Nl10arg42 lam2n8 ) ( * Nl10arg43 lam2n9 ) ) 0 ) ( = ( + ( * ( - 1 ) lam2n4 ) ( * UndefCntr0_undef89 lam2n6 ) ( - ( + 0 ( * Nl10arg12 1 ) ) ) ) 0 ) ( = ( + ( * ( - 1 ) lam2n5 ) ( * UndefCntr0_undef90 lam2n6 ) ( - ( + 0 ( * Nl10arg22 1 ) ) ) ) 0 ) ( = ( + ( * ( - 1 ) lam2n0 ) ( * UndefCntr0_undef91 lam2n6 ) ( - ( + 0 ( * Nl10arg32 1 ) ) ) ) 0 ) ( = ( + ( * UndefCntr0_undef92 lam2n6 ) ( - ( + 0 ( * Nl10arg42 1 ) ) ) ) 0 ) ) ))
(assert ( or ( and ( >= lam0n0 0 ) ( >= lam0n1 0 ) ( >= lam0n2 0 ) ( >= lam0n3 0 ) ( >= lam0n4 0 ) ( >= lam0n5 0 ) ( >= lam0n6 0 ) ( >= lam0n7 0 ) ( >= lam0n8 0 ) ( >= lam0n9 0 ) ( > ( + ( * 1 lam0n1 ) ( * 1 lam0n2 ) ( * 1 lam0n3 ) ( * 1 lam0n4 ) ( * 1 lam0n5 ) ( * UndefCntr0_CT lam0n6 ) ( * Nl10CT1 lam0n7 ) ( * Nl10CT2 lam0n8 ) ( * Nl10CT3 lam0n9 ) ( - 1 ) ) 0 ) ( = ( + ( * ( - 1 ) lam0n1 ) ( * UndefCntr0_arg1 lam0n6 ) ( * Nl10arg11 lam0n7 ) ( * Nl10arg12 lam0n8 ) ( * Nl10arg13 lam0n9 ) ) 0 ) ( = ( + ( * ( - 1 ) lam0n2 ) ( * UndefCntr0_arg2 lam0n6 ) ( * Nl10arg21 lam0n7 ) ( * Nl10arg22 lam0n8 ) ( * Nl10arg23 lam0n9 ) ) 0 ) ( = ( + ( * ( - 1 ) lam0n3 ) ( * UndefCntr0_arg3 lam0n6 ) ( * Nl10arg31 lam0n7 ) ( * Nl10arg32 lam0n8 ) ( * Nl10arg33 lam0n9 ) ) 0 ) ( = ( + ( * UndefCntr0_arg4 lam0n6 ) ( * Nl10arg41 lam0n7 ) ( * Nl10arg42 lam0n8 ) ( * Nl10arg43 lam0n9 ) ) 0 ) ( = ( + ( * ( - 1 ) lam0n4 ) ( * UndefCntr0_undef89 lam0n6 ) ) 0 ) ( = ( + ( * ( - 1 ) lam0n5 ) ( * UndefCntr0_undef90 lam0n6 ) ) 0 ) ( = ( + ( * ( - 1 ) lam0n0 ) ( * UndefCntr0_undef91 lam0n6 ) ) 0 ) ( = ( * UndefCntr0_undef92 lam0n6 ) 0 ) ) ( and ( >= lam3n0 0 ) ( >= lam3n1 0 ) ( >= lam3n2 0 ) ( >= lam3n3 0 ) ( >= lam3n4 0 ) ( >= lam3n5 0 ) ( >= lam3n6 0 ) ( >= lam3n7 0 ) ( >= lam3n8 0 ) ( >= lam3n9 0 ) ( > ( + ( * 1 lam3n1 ) ( * 1 lam3n2 ) ( * 1 lam3n3 ) ( * 1 lam3n4 ) ( * 1 lam3n5 ) ( * UndefCntr0_CT lam3n6 ) ( * Nl10CT1 lam3n7 ) ( * Nl10CT2 lam3n8 ) ( * Nl10CT3 lam3n9 ) ( - 1 ( + ( + ( + ( + Nl10CT3 ( * Nl10arg13 0 ) ) ( * Nl10arg23 0 ) ) ( * Nl10arg33 0 ) ) ( * Nl10arg43 0 ) ) ) ) 0 ) ( = ( + ( * ( - 1 ) lam3n1 ) ( * UndefCntr0_arg1 lam3n6 ) ( * Nl10arg11 lam3n7 ) ( * Nl10arg12 lam3n8 ) ( * Nl10arg13 lam3n9 ) ) 0 ) ( = ( + ( * ( - 1 ) lam3n2 ) ( * UndefCntr0_arg2 lam3n6 ) ( * Nl10arg21 lam3n7 ) ( * Nl10arg22 lam3n8 ) ( * Nl10arg23 lam3n9 ) ) 0 ) ( = ( + ( * ( - 1 ) lam3n3 ) ( * UndefCntr0_arg3 lam3n6 ) ( * Nl10arg31 lam3n7 ) ( * Nl10arg32 lam3n8 ) ( * Nl10arg33 lam3n9 ) ) 0 ) ( = ( + ( * UndefCntr0_arg4 lam3n6 ) ( * Nl10arg41 lam3n7 ) ( * Nl10arg42 lam3n8 ) ( * Nl10arg43 lam3n9 ) ) 0 ) ( = ( + ( * ( - 1 ) lam3n4 ) ( * UndefCntr0_undef89 lam3n6 ) ( - ( + 0 ( * Nl10arg13 1 ) ) ) ) 0 ) ( = ( + ( * ( - 1 ) lam3n5 ) ( * UndefCntr0_undef90 lam3n6 ) ( - ( + 0 ( * Nl10arg23 1 ) ) ) ) 0 ) ( = ( + ( * ( - 1 ) lam3n0 ) ( * UndefCntr0_undef91 lam3n6 ) ( - ( + 0 ( * Nl10arg33 1 ) ) ) ) 0 ) ( = ( + ( * UndefCntr0_undef92 lam3n6 ) ( - ( + 0 ( * Nl10arg43 1 ) ) ) ) 0 ) ) ))
(assert ( and ( <= ( + Nl10CT1 ( * Nl10arg11 FV_arg1_1 ) ( * Nl10arg21 FV_arg2_1 ) ( * Nl10arg31 FV_arg3_1 ) ( * Nl10arg41 FV_arg4_1 ) ) 0 ) ( <= ( + Nl10CT2 ( * Nl10arg12 FV_arg1_1 ) ( * Nl10arg22 FV_arg2_1 ) ( * Nl10arg32 FV_arg3_1 ) ( * Nl10arg42 FV_arg4_1 ) ) 0 ) ( <= ( + Nl10CT3 ( * Nl10arg13 FV_arg1_1 ) ( * Nl10arg23 FV_arg2_1 ) ( * Nl10arg33 FV_arg3_1 ) ( * Nl10arg43 FV_arg4_1 ) ) 0 ) ( <= ( + 1 ( * ( - 1 ) FV_arg1_1 ) ) 0 ) ( <= ( + 1 ( * ( - 1 ) FV_arg2_1 ) ) 0 ) ))
(assert ( or ( not ( = UndefCntr0_arg1 0 ) ) ( not ( = UndefCntr0_arg2 0 ) ) ( not ( = UndefCntr0_arg3 0 ) ) ( not ( = UndefCntr0_arg4 0 ) ) ( not ( = UndefCntr0_undef89 0 ) ) ( not ( = UndefCntr0_undef90 0 ) ) ( not ( = UndefCntr0_undef91 0 ) ) ( not ( = UndefCntr0_undef92 0 ) ) ( = UndefCntr0_CT 0 ) ))
(assert ( or ( and ( = UndefCntr0_arg1 0 ) ( = UndefCntr0_arg2 0 ) ( = UndefCntr0_arg3 0 ) ( = UndefCntr0_arg4 0 ) ) ( or ( not ( = UndefCntr0_undef89 0 ) ) ( not ( = UndefCntr0_undef90 0 ) ) ( not ( = UndefCntr0_undef91 0 ) ) ( not ( = UndefCntr0_undef92 0 ) ) ) ))
(assert ( or ( = UndefCntr0_undef89 0 ) ( and ( and ( = UndefCntr0_arg1 0 ) ( = UndefCntr0_arg2 0 ) ( = UndefCntr0_arg3 0 ) ( = UndefCntr0_arg4 0 ) ( = UndefCntr0_undef92 0 ) ( = UndefCntr0_undef90 0 ) ( = UndefCntr0_undef91 0 ) ) ( or ( and ( <= ( + 1 ( * ( - 1 ) FV_undef89_0 ) ) 0 ) ( <= ( + UndefCntr0_CT ( * UndefCntr0_undef89 FV_undef89_0 ) ( * UndefCntr0_undef90 FV_undef90_0 ) ( * UndefCntr0_undef91 FV_undef91_0 ) ( * UndefCntr0_arg1 FV_arg1_0 ) ( * UndefCntr0_arg2 FV_arg2_0 ) ( * UndefCntr0_arg3 FV_arg3_0 ) ( * UndefCntr0_arg4 FV_arg4_0 ) ( * UndefCntr0_undef92 FV_undef92_0 ) ) 0 ) ) ( and ( <= ( + 1 ( * ( - 1 ) FV_undef89_0 ) ) 0 ) ( <= ( + UndefCntr0_CT ( * UndefCntr0_undef89 FV_undef89_0 ) ( * UndefCntr0_undef90 FV_undef90_0 ) ( * UndefCntr0_undef91 FV_undef91_0 ) ( * UndefCntr0_arg1 FV_arg1_0 ) ( * UndefCntr0_arg2 FV_arg2_0 ) ( * UndefCntr0_arg3 FV_arg3_0 ) ( * UndefCntr0_arg4 FV_arg4_0 ) ( * UndefCntr0_undef92 FV_undef92_0 ) ) 0 ) ) ) ) ))
(assert ( or ( = UndefCntr0_undef90 0 ) ( and ( and ( = UndefCntr0_arg1 0 ) ( = UndefCntr0_arg2 0 ) ( = UndefCntr0_arg3 0 ) ( = UndefCntr0_arg4 0 ) ( = UndefCntr0_undef92 0 ) ( = UndefCntr0_undef89 0 ) ( = UndefCntr0_undef91 0 ) ) ( or ( and ( <= ( + 1 ( * ( - 1 ) FV_undef90_0 ) ) 0 ) ( <= ( + UndefCntr0_CT ( * UndefCntr0_undef89 FV_undef89_0 ) ( * UndefCntr0_undef90 FV_undef90_0 ) ( * UndefCntr0_undef91 FV_undef91_0 ) ( * UndefCntr0_arg1 FV_arg1_0 ) ( * UndefCntr0_arg2 FV_arg2_0 ) ( * UndefCntr0_arg3 FV_arg3_0 ) ( * UndefCntr0_arg4 FV_arg4_0 ) ( * UndefCntr0_undef92 FV_undef92_0 ) ) 0 ) ) ( and ( <= ( + 1 ( * ( - 1 ) FV_undef90_0 ) ) 0 ) ( <= ( + UndefCntr0_CT ( * UndefCntr0_undef89 FV_undef89_0 ) ( * UndefCntr0_undef90 FV_undef90_0 ) ( * UndefCntr0_undef91 FV_undef91_0 ) ( * UndefCntr0_arg1 FV_arg1_0 ) ( * UndefCntr0_arg2 FV_arg2_0 ) ( * UndefCntr0_arg3 FV_arg3_0 ) ( * UndefCntr0_arg4 FV_arg4_0 ) ( * UndefCntr0_undef92 FV_undef92_0 ) ) 0 ) ) ) ) ))
(assert ( or ( = UndefCntr0_undef91 0 ) ( and ( and ( = UndefCntr0_arg1 0 ) ( = UndefCntr0_arg2 0 ) ( = UndefCntr0_arg3 0 ) ( = UndefCntr0_arg4 0 ) ( = UndefCntr0_undef92 0 ) ( = UndefCntr0_undef89 0 ) ( = UndefCntr0_undef90 0 ) ) ( or ( and ( <= ( * ( - 1 ) FV_undef91_0 ) 0 ) ( <= ( + UndefCntr0_CT ( * UndefCntr0_undef89 FV_undef89_0 ) ( * UndefCntr0_undef90 FV_undef90_0 ) ( * UndefCntr0_undef91 FV_undef91_0 ) ( * UndefCntr0_arg1 FV_arg1_0 ) ( * UndefCntr0_arg2 FV_arg2_0 ) ( * UndefCntr0_arg3 FV_arg3_0 ) ( * UndefCntr0_arg4 FV_arg4_0 ) ( * UndefCntr0_undef92 FV_undef92_0 ) ) 0 ) ) ( and ( <= ( * ( - 1 ) FV_undef91_0 ) 0 ) ( <= ( + UndefCntr0_CT ( * UndefCntr0_undef89 FV_undef89_0 ) ( * UndefCntr0_undef90 FV_undef90_0 ) ( * UndefCntr0_undef91 FV_undef91_0 ) ( * UndefCntr0_arg1 FV_arg1_0 ) ( * UndefCntr0_arg2 FV_arg2_0 ) ( * UndefCntr0_arg3 FV_arg3_0 ) ( * UndefCntr0_arg4 FV_arg4_0 ) ( * UndefCntr0_undef92 FV_undef92_0 ) ) 0 ) ) ) ) ))
(assert ( and ( >= lam16n0 0 ) ( >= lam16n1 0 ) ( >= lam16n2 0 ) ( >= lam16n3 0 ) ( >= lam16n4 0 ) ( >= lam16n5 0 ) ( > ( + ( * 1 lam16n1 ) ( * 1 lam16n2 ) ( * Nl10CT1 lam16n3 ) ( * Nl10CT2 lam16n4 ) ( * Nl10CT3 lam16n5 ) ( - 1 ) ) 0 ) ( = ( + ( * ( - 1 ) lam16n1 ) ( * Nl10arg11 lam16n3 ) ( * Nl10arg12 lam16n4 ) ( * Nl10arg13 lam16n5 ) ) 0 ) ( = ( + ( * ( - 1 ) lam16n2 ) ( * Nl10arg21 lam16n3 ) ( * Nl10arg22 lam16n4 ) ( * Nl10arg23 lam16n5 ) ) 0 ) ( = ( + ( * 1 lam16n0 ) ( * Nl10arg31 lam16n3 ) ( * Nl10arg32 lam16n4 ) ( * Nl10arg33 lam16n5 ) ) 0 ) ( = ( + ( * Nl10arg41 lam16n3 ) ( * Nl10arg42 lam16n4 ) ( * Nl10arg43 lam16n5 ) ) 0 ) ))
(assert ( and ( and ( <= ( + Nl10CT1 ( * Nl10arg11 FV_arg1_2 ) ( * Nl10arg21 FV_arg2_2 ) ( * Nl10arg31 FV_arg3_2 ) ( * Nl10arg41 FV_arg4_2 ) ) 0 ) ( <= ( + Nl10CT2 ( * Nl10arg12 FV_arg1_2 ) ( * Nl10arg22 FV_arg2_2 ) ( * Nl10arg32 FV_arg3_2 ) ( * Nl10arg42 FV_arg4_2 ) ) 0 ) ( <= ( + Nl10CT3 ( * Nl10arg13 FV_arg1_2 ) ( * Nl10arg23 FV_arg2_2 ) ( * Nl10arg33 FV_arg3_2 ) ( * Nl10arg43 FV_arg4_2 ) ) 0 ) ) ( and ( <= ( * ( - 1 ) FV_undef91_2 ) 0 ) ( <= ( + 1 ( * ( - 1 ) FV_arg1_2 ) ) 0 ) ( <= ( + 1 ( * ( - 1 ) FV_arg2_2 ) ) 0 ) ( <= ( + 1 ( * ( - 1 ) FV_arg3_2 ) ) 0 ) ( <= ( + 1 ( * ( - 1 ) FV_undef89_2 ) ) 0 ) ( <= ( + 1 ( * ( - 1 ) FV_undef90_2 ) ) 0 ) ) ))
(check-sat)
(exit)
